HFSDDW
20	4	2
0	33	1	37
0	88	1	17
0	15	1	68
0	71	1	72
0	44	1	16
0	42	1	66
0	19	1	24
0	52	1	55
0	77	1	81
0	35	1	27
0	64	1	18
0	59	1	8
0	76	1	13
0	54	1	33
0	88	1	47
0	30	1	83
0	62	1	60
0	76	1	17
0	47	1	67
0	18	1	81
LBCmax: 536
RELDUE
-1	272	2	4
-1	395	8	9
-1	124	8	6
-1	220	1	6
-1	188	5	4
-1	349	1	1
-1	398	6	5
-1	184	6	8
-1	0	8	1
-1	164	6	1
-1	314	3	1
-1	253	3	5
-1	105	8	7
-1	192	5	2
-1	40	4	6
-1	24	4	6
-1	362	3	2
-1	378	6	2
-1	164	9	4
-1	0	6	8
DDW
250	294
383	407
112	136
205	235
180	196
328	370
358	438
169	199
0	0
157	171
301	327
235	271
103	107
184	200
37	43
24	24
358	366
363	393
161	167
0	0
